001 001 002 003 003 003 004 003 004 004 003 004 005 005 003 009 007 009 007 015 013 018 020 017 012 012 007 004 005 006 007
001 002 002 004 004 004 003 004 005 005 002 004 003 004 004 004 009 008 006 009 010 014 020 017 014 013 012 006 006 006 006
004 003 003 003 005 004 006 004 003 005 003 003 004 003 004 005 009 009 006 006 008 011 016 020 011 013 013 010 010 007 004
005 006 006 003 002 002 002 004 003 003 002 003 004 006 005 008 007 005 008 009 008 008 011 020 013 014 012 013 009 004 004
003 004 005 002 002 001 001 001 002 002 003 004 005 006 007 007 007 009 009 009 009 010 012 014 016 014 011 011 014 010 006
001 001 002 001 001 001 001 001 002 002 006 004 005 006 007 006 005 003 005 009 006 006 010 013 018 010 018 012 013 010 008
001 001 003 001 002 001 001 003 002 004 005 005 003 005 004 004 005 006 009 011 006 007 008 013 013 013 010 011 011 010 011
001 001 002 001 001 001 002 003 003 006 004 004 003 003 004 005 006 008 008 013 008 007 015 012 011 014 013 011 012 008 009
001 001 001 001 001 001 002 003 003 004 003 003 002 003 004 006 007 010 015 009 006 006 017 021 012 012 013 010 008 007 008
001 001 001 001 001 001 002 001 002 001 003 002 002 003 003 005 006 010 006 008 006 007 007 025 017 012 017 011 014 014 013
000 001 001 001 001 001 001 002 002 002 002 001 002 002 003 003 003 008 006 007 006 006 009 020 024 013 018 013 018 013 014
001 002 001 000 001 001 001 002 002 002 002 001 002 002 004 003 002 002 004 006 004 005 009 014 015 015 012 012 017 013 013
002 001 001 000 001 002 002 003 001 002 001 001 002 002 003 003 002 001 002 004 004 006 006 008 015 011 018 021 023 019 014
001 001 000 001 001 002 002 002 002 001 002 001 002 002 002 001 003 002 002 003 002 002 006 009 011 011 010 009 021 013 017
001 000 000 001 001 001 002 003 003 002 002 002 002 000 002 002 003 001 002 003 002 005 007 008 009 009 012 011 015 025 024
001 000 001 001 003 001 001 003 002 002 003 002 003 001 004 002 003 001 002 003 002 003 006 007 010 009 009 008 012 014 011
000 000 002 006 006 003 002 003 003 002 002 004 004 002 004 002 003 001 001 003 002 003 005 005 009 014 009 008 010 011 012
000 000 003 008 008 006 005 009 007 006 006 006 007 004 004 002 003 002 001 004 001 002 005 005 005 015 014 011 010 010 008
000 001 004 009 010 009 015 009 009 007 007 007 010 004 003 002 003 002 001 004 002 004 004 008 008 007 015 011 021 028 012
000 000 002 009 007 009 007 011 013 007 005 006 005 003 003 003 004 002 001 002 004 005 006 014 010 008 009 018 037 021 025
000 001 001 002 002 003 004 016 009 006 004 004 002 001 004 007 006 003 002 003 006 005 005 010 007 010 013 030 061 040 037
000 001 001 001 002 002 003 016 010 006 005 004 002 002 009 008 006 003 004 003 008 003 003 009 006 009 014 028 048 044 041
000 001 001 001 001 002 005 013 008 009 009 003 001 003 009 009 004 004 004 002 005 001 002 007 005 007 014 025 028 030 034
000 001 001 001 002 006 017 021 012 016 009 003 002 003 006 007 004 005 003 002 003 001 001 006 005 006 012 -99 020 019 025
000 001 002 004 010 016 015 011 011 022 021 005 003 001 002 003 003 003 001 001 002 001 000 -99 -99 -99 -99 -99 016 017 011
000 001 006 009 012 013 005 011 007 006 008 004 002 001 001 002 002 002 000 001 002 000 000 -99 -99 -99 -99 -99 -99 005 006
001 001 005 006 007 002 003 010 005 003 004 005 004 002 005 004 002 001 000 001 001 000 000 -99 -99 -99 -99 -99 -99 004 006
001 002 005 003 003 001 003 003 004 003 004 004 006 005 003 004 002 002 001 001 000 000 000 -99 -99 -99 -99 -99 -99 003 004
001 001 002 001 002 002 004 006 004 002 003 004 011 006 006 010 005 004 002 001 000 000 -99 -99 -99 -99 003 -99 -99 003 003
001 001 001 001 001 001 005 006 006 003 002 003 008 006 010 012 010 006 003 001 002 000 -99 001 002 002 004 004 004 -99 002
001 001 001 001 002 003 006 004 006 002 002 004 009 006 005 012 011 006 008 006 003 000 -99 002 002 003 003 004 004 -99 001
001 001 002 002 002 004 007 009 009 005 005 004 011 006 011 018 011 013 018 013 012 003 001 001 002 003 002 004 004 003 002
001 004 006 005 004 006 013 014 010 007 007 006 010 007 013 019 018 016 021 021 020 009 001 001 003 004 003 003 002 002 001
000 002 003 010 006 006 009 009 010 008 010 017 012 006 012 020 028 023 023 030 021 014 004 002 005 019 007 004 002 003 002
000 000 003 005 006 004 010 006 006 007 005 010 008 008 017 040 027 026 017 026 016 033 011 011 014 018 009 005 002 005 003
000 000 000 002 002 005 005 006 006 006 006 008 006 007 021 029 022 023 017 019 011 053 023 022 021 033 015 008 007 008 005
000 000 000 002 001 005 005 003 003 004 005 005 004 007 040 025 021 018 014 021 024 042 051 021 016 029 023 010 015 009 004
000 001 002 001 003 002 003 001 001 002 003 004 001 005 021 020 024 019 016 034 031 039 054 025 024 029 014 009 010 005 006
000 001 001 002 004 002 001 001 000 001 002 002 001 002 010 015 014 017 023 028 033 029 026 042 027 023 012 011 008 005 007
001 001 000 001 002 002 001 001 001 001 000 000 000 001 004 004 005 017 029 017 036 041 035 033 025 018 007 005 008 007 008
002 000 000 000 000 000 000 000 002 000 000 000 000 000 000 001 001 012 010 012 014 031 052 023 021 021 010 006 008 008 028
002 001 001 000 000 000 000 000 000 000 001 000 000 000 000 000 001 002 002 003 006 023 046 017 019 024 016 012 011 019 039
005 003 001 001 000 000 000 000 000 000 001 000 000 000 000 000 000 000 000 001 001 033 028 012 015 014 022 015 007 017 046
002 001 002 001 000 001 000 000 000 000 000 000 000 000 000 000 000 000 000 000 001 022 022 011 012 008 026 006 008 017 032
000 000 001 000 001 002 001 001 000 000 000 000 000 000 000 000 000 000 000 000 001 018 021 009 005 004 004 004 006 013 018
000 000 000 000 002 002 003 002 001 000 000 000 000 000 000 000 000 000 000 000 001 005 006 006 003 001 001 002 005 001 008
000 000 000 000 001 001 002 001 001 001 000 000 000 000 000 000 000 000 000 000 001 003 003 004 002 000 000 002 000 000 005
-99 000 000 000 000 000 001 002 003 002 001 000 000 000 000 001 000 000 000 000 002 001 001 001 001 000 000 -99 000 000 002
000 000 000 000 000 000 000 002 002 002 000 000 000 000 000 001 001 000 000 000 000 000 000 000 000 000 000 000 000 000 000
000 000 000 000 000 000 000 002 001 001 000 000 000 000 000 000 002 001 000 000 000 000 000 000 000 000 -99 000 000 000 000
001 001 000 000 000 000 000 000 000 000 000 000 000 000 000 000 001 001 000 000 000 000 000 000 -99 -99 000 000 000 000 001
001 000 000 000 000 000 000 000 000 000 000 000 000 000 000 000 001 001 000 000 000 -99 -99 -99 -99 -99 001 000 000 002 007
001 000 000 000 000 000 000 000 -99 -99 000 000 000 000 000 000 001 001 000 000 000 -99 000 -99 -99 -99 001 000 001 004 006
000 000 001 000 000 000 000 000 -99 000 000 000 000 000 000 001 001 001 000 000 000 000 000 000 000 -99 000 -99 001 003 004
000 000 002 003 000 000 000 000 000 000 000 000 000 000 000 001 002 000 000 000 000 000 000 000 000 000 000 000 001 003 005
